language ESSENCE 1.3

letting buckets be 4

letting capacity     be function(1 --> 4, 2 --> 7, 3 --> 8, 4 --> 15)
letting initialState be function(1 --> 0, 2 --> 0, 3 --> 0, 4 --> 15)
letting finalState   be function(1 --> 0, 2 --> 5, 3 --> 5, 4 --> 5)

letting HORIZON be 30
